\ENCODING=ISO-8859-1
\Problem name: 

Minimize
 obj: x_0 + x_1 + x_2 + x_3 + x_4 + x_5 + x_6 + x_7 + x_8 + x_9 + x_10 + x_11
      + x_12 + x_13 + x_14
Subject To
 T_0:  x_2 + x_3 + x_5 >= 1
 T_1:  x_3 + x_4 + x_6 >= 1
 T_2:  x_0 + x_4 + x_7 >= 1
 T_3:  x_0 + x_1 + x_8 >= 1
 T_4:  x_1 + x_2 + x_9 >= 1
 T_5:  x_1 + x_4 + x_5 >= 1
 T_6:  x_0 + x_2 + x_6 >= 1
 T_7:  x_1 + x_3 + x_7 >= 1
 T_8:  x_2 + x_4 + x_8 >= 1
 T_9:  x_0 + x_3 + x_9 >= 1
 T_10: x_7 + x_8 + x_10 >= 1
 T_11: x_8 + x_9 + x_11 >= 1
 T_12: x_5 + x_9 + x_12 >= 1
 T_13: x_5 + x_6 + x_13 >= 1
 T_14: x_6 + x_7 + x_14 >= 1
 T_15: x_6 + x_9 + x_10 >= 1
 T_16: x_5 + x_7 + x_11 >= 1
 T_17: x_6 + x_8 + x_12 >= 1
 T_18: x_7 + x_9 + x_13 >= 1
 T_19: x_5 + x_8 + x_14 >= 1
 T_20: x_0 + x_12 + x_13 >= 1
 T_21: x_1 + x_13 + x_14 >= 1
 T_22: x_2 + x_10 + x_14 >= 1
 T_23: x_3 + x_10 + x_11 >= 1
 T_24: x_4 + x_11 + x_12 >= 1
 T_25: x_0 + x_11 + x_14 >= 1
 T_26: x_1 + x_10 + x_12 >= 1
 T_27: x_2 + x_11 + x_13 >= 1
 T_28: x_3 + x_12 + x_14 >= 1
 T_29: x_4 + x_10 + x_13 >= 1
 T_30: x_0 + x_5 + x_10 >= 1
 T_31: x_1 + x_6 + x_11 >= 1
 T_32: x_2 + x_7 + x_12 >= 1
 T_33: x_3 + x_8 + x_13 >= 1
 T_34: x_4 + x_9 + x_14 >= 1
Bounds
 0 <= x_0 <= 1
 0 <= x_1 <= 1
 0 <= x_2 <= 1
 0 <= x_3 <= 1
 0 <= x_4 <= 1
 0 <= x_5 <= 1
 0 <= x_6 <= 1
 0 <= x_7 <= 1
 0 <= x_8 <= 1
 0 <= x_9 <= 1
 0 <= x_10 <= 1
 0 <= x_11 <= 1
 0 <= x_12 <= 1
 0 <= x_13 <= 1
 0 <= x_14 <= 1
End
